p cnf 75 150
1 -75 -56 0
1 -75 -52 0
1 -74 -47 0
1 -74 -34 0
1 -73 9 0
1 -73 38 0
1 -72 -65 0
1 -72 2 0
1 -71 -17 0
1 -71 -11 0
1 -70 -30 0
1 -70 37 0
1 -69 -19 0
1 -69 21 0
1 -68 -52 0
1 -68 -28 0
1 -67 33 0
1 -67 43 0
1 -66 -38 0
1 -66 1 0
1 -65 -17 0
1 -64 -6 0
1 -64 50 0
1 -63 -53 0
1 -63 8 0
1 -62 -2 0
1 -62 32 0
1 -61 -37 0
1 -61 54 0
1 -60 -31 0
1 -60 31 0
1 -59 18 0
1 -59 46 0
1 -58 -18 0
1 -58 2 0
1 -57 -21 0
1 -57 64 0
1 -56 71 0
1 -55 -50 0
1 -55 -48 0
1 -54 -50 0
1 -54 67 0
1 -53 -3 0
1 -51 23 0
1 -51 41 0
1 -49 -45 0
1 -49 -32 0
1 -48 6 0
1 -47 -32 0
1 -46 -25 0
1 -46 6 0
1 -45 -33 0
1 -44 24 0
1 -44 35 0
1 -43 18 0
1 -43 19 0
1 -42 36 0
1 -42 68 0
1 -41 -5 0
1 -41 24 0
1 -40 12 0
1 -40 34 0
1 -39 -31 0
1 -39 -7 0
1 -38 -36 0
1 -37 -23 0
1 -36 -5 0
1 -35 -13 0
1 -35 51 0
1 -34 70 0
1 -33 8 0
1 -30 65 0
1 -29 -11 0
1 -29 58 0
1 -28 55 0
1 -27 -19 0
1 -27 22 0
1 -26 7 0
1 -26 27 0
1 -25 51 0
1 -24 39 0
1 -24 44 0
1 -23 9 0
1 -22 65 0
1 -22 68 0
1 -21 72 0
1 -20 -12 0
1 -20 59 0
1 -18 56 0
1 -16 28 0
1 -16 61 0
1 -15 20 0
1 -15 63 0
1 -14 30 0
1 -14 36 0
1 -13 25 0
1 -12 5 0
1 -10 28 0
1 -10 75 0
1 -9 5 0
1 -9 72 0
1 -8 11 0
1 -8 22 0
1 -7 48 0
1 -6 54 0
1 -4 -2 0
1 -4 13 0
1 -3 30 0
1 -1 39 0
1 -1 59 0
1 1 38 0
1 3 10 0
1 3 75 0
1 4 49 0
1 4 64 0
1 7 60 0
1 10 26 0
1 11 57 0
1 12 47 0
1 13 53 0
1 14 33 0
1 14 42 0
1 15 44 0
1 15 50 0
1 16 17 0
1 16 57 0
1 17 26 0
1 19 37 0
1 20 48 0
1 21 66 0
1 23 62 0
1 25 52 0
1 27 35 0
1 29 60 0
1 29 73 0
1 31 74 0
1 32 53 0
1 34 49 0
1 40 42 0
1 40 71 0
1 41 73 0
1 43 56 0
1 45 61 0
1 45 62 0
1 46 58 0
1 47 69 0
1 52 66 0
1 55 74 0
1 63 70 0
1 67 69 0
